
Gurobi 11.0.3 (linux64) logging started Sun Nov 24 14:43:16 2024

Set parameter LogFile to value "/home/yihong/Coding/OR_SUC/SUC_results_bigM100000_thread4/case24_ieee_rts_theta0.1_epsilon0.025_gurobi_seed1330000_num_gen100_N_WDR150_load_scaling_factor1_proposed_T24quadra_cost.txt"
Set parameter TimeLimit to value 3600
Gurobi Optimizer version 11.0.3 build v11.0.3rc0 (linux64 - "Ubuntu 20.04.6 LTS")

CPU model: AMD EPYC 7532 32-Core Processor, instruction set [SSE2|AVX|AVX2]
Thread count: 64 physical cores, 128 logical processors, using up to 4 threads

Optimize a model with 53864 rows, 29911 columns and 911262 nonzeros
Model fingerprint: 0xeaf89c70
Model has 2400 quadratic constraints
Variable types: 27511 continuous, 2400 integer (2400 binary)
Coefficient statistics:
  Matrix range     [3e-04, 2e+03]
  QMatrix range    [2e-03, 8e-03]
  QLMatrix range   [2e-01, 6e+01]
  Objective range  [1e+00, 1e+00]
  Bounds range     [1e+00, 1e+00]
  RHS range        [1e+00, 9e+03]
Presolve removed 43785 rows and 12832 columns
Presolve time: 0.26s
Presolved: 10079 rows, 17079 columns, 54146 nonzeros
Presolved model has 2400 quadratic constraint(s)
Variable types: 14679 continuous, 2400 integer (2400 binary)

Root relaxation: objective 4.177793e+04, 8255 iterations, 0.22 seconds (0.32 work units)

    Nodes    |    Current Node    |     Objective Bounds      |     Work
 Expl Unexpl |  Obj  Depth IntInf | Incumbent    BestBd   Gap | It/Node Time

H    0     0                    711029.42776 41777.9306  94.1%     -    0s
*    0     0               0    711029.42776 41777.9306  94.1%     -    0s
     0     0 405172.568    0  704 711029.428 405172.568  43.0%     -    1s
     0     0 673358.275    0  334 711029.428 673358.275  5.30%     -    1s
     0     0 673564.702    0  102 711029.428 673564.702  5.27%     -    2s
     0     0 673565.179    0  102 711029.428 673565.179  5.27%     -    2s
     0     0 673570.860    0  102 711029.428 673570.860  5.27%     -    2s
     0     0 673578.134    0  126 711029.428 673578.134  5.27%     -    2s
     0     0 673578.169    0  126 711029.428 673578.169  5.27%     -    2s
     0     2 673578.169    0  126 711029.428 673578.169  5.27%     -    3s
    55    63 673803.537   11   80 711029.428 673609.729  5.26%  76.3    5s
H  139   136                    673762.03050 673609.729  0.02%  60.5    6s
*  139   136              37    673762.03050 673609.729  0.02%  61.0    6s

Cutting planes:
  Gomory: 27
  Implied bound: 340
  MIR: 9
  Flow cover: 102
  RLT: 285
  Relax-and-lift: 131

Explored 146 nodes (30209 simplex iterations) in 6.92 seconds (9.86 work units)
Thread count was 4 (of 128 available processors)

Solution count 2: 673762 711029 

Optimal solution found (tolerance 1.00e-03)
Warning: max constraint violation (9.4801e-09) exceeds tolerance
Best objective 6.737620304999e+05, best bound 6.736097293438e+05, gap 0.0226%
